3002367231980854991507,14,1,2,010,12,1,2,03,3,1,2,04,8,1,2,013,2,1,2,03,7,1,2,015,6,1,2,02,8,1,2,07,4,1,2,07,15,1,2,01,3,1,2,010,5,1,2,011,11,1,2,02,15,1,2,01,11,1,2,013,2,1,2,03,7,1,2,03,13,1,2,011,11,1,2,015,5,1,2,014,12,1,2,01,13,1,2,09,7,1,2,07,15,1,2,02,8,1,2,013,9,1,2,012,13,1,2,010,15,1,2,06,13,1,2,013,15,1,2,02,13,1,2,02,1,1,2,012,12,1,2,05,2,1,2,06,8,1,2,012,1,1,2,014,12,1,2,010,7,1,2,06,8,1,2,013,4,1,2,013,9,1,2,012,11,1,2,03,11,1,2,015,1,1,2,02,8,1,2,015,13,1,2,010,12,1,2,06,9,1,2,02,1,1,2,02,14,1,2,0